Gurobi Optimizer version 9.1.2 build v9.1.2rc0 (linux64)
Thread count: 36 physical cores, 72 logical processors, using up to 32 threads
Optimize a model with 12 rows, 57 columns and 590 nonzeros
Model fingerprint: 0xf32eec78
Model has 47 quadratic constraints
Coefficient statistics:
  Matrix range     [2e-05, 3e+00]
  QMatrix range    [1e+00, 1e+00]
  QLMatrix range   [1e+00, 1e+00]
  Objective range  [8e-03, 7e-01]
  Bounds range     [1e+00, 1e+00]
  RHS range        [1e+00, 1e+00]
Presolve removed 9 rows and 0 columns

Continuous model is non-convex -- solving as a MIP.

Presolve removed 9 rows and 0 columns
Presolve time: 0.00s
Presolved: 189 rows, 57 columns, 443 nonzeros
Presolved model has 47 bilinear constraint(s)
Variable types: 57 continuous, 0 integer (0 binary)

Root relaxation: objective -1.743721e+00, 44 iterations, 0.00 seconds

    Nodes    |    Current Node    |     Objective Bounds      |     Work
 Expl Unexpl |  Obj  Depth IntInf | Incumbent    BestBd   Gap | It/Node Time

     0     0   -1.74372    0   38          -   -1.74372      -     -    0s
H    0     0                       0.6147548   -1.74372   384%     -    0s
     0     0   -1.64739    0    1    0.61475   -1.64739   368%     -    0s
H    0     0                      -1.6450460   -1.64739  0.14%     -    0s
     0     0     cutoff    0        -1.64505   -1.64505  0.00%     -    0s

Cutting planes:
  RLT: 25
  BQP: 3

Explored 1 nodes (76 simplex iterations) in 0.01 seconds
Thread count was 32 (of 72 available processors)

Solution count 2: -1.64505 0.614755 
No other solutions better than -1.64505

Optimal solution found (tolerance 1.00e-04)
Best objective -1.645045978473e+00, best bound -1.645045978473e+00, gap 0.0000%

User-callback calls 78, time in user-callback 0.00 sec
Gurobi Optimizer version 9.1.2 build v9.1.2rc0 (linux64)
Thread count: 36 physical cores, 72 logical processors, using up to 32 threads
Optimize a model with 60 rows, 300 columns and 15500 nonzeros
Model fingerprint: 0xf2108940
Model has 250 quadratic constraints
Coefficient statistics:
  Matrix range     [1e-06, 4e+00]
  QMatrix range    [1e+00, 1e+00]
  QLMatrix range   [1e+00, 1e+00]
  Objective range  [1e-04, 9e-01]
  Bounds range     [1e+00, 1e+00]
  RHS range        [1e+00, 1e+00]
Presolve removed 12 rows and 0 columns

Continuous model is non-convex -- solving as a MIP.

Presolve removed 12 rows and 0 columns
Presolve time: 0.01s
Presolved: 1048 rows, 300 columns, 13862 nonzeros
Presolved model has 250 bilinear constraint(s)
Variable types: 300 continuous, 0 integer (0 binary)

Root relaxation: objective -1.838463e+01, 361 iterations, 0.02 seconds

    Nodes    |    Current Node    |     Objective Bounds      |     Work
 Expl Unexpl |  Obj  Depth IntInf | Incumbent    BestBd   Gap | It/Node Time

     0     0  -18.38463    0  215          -  -18.38463      -     -    0s
H    0     0                      -6.5868582  -18.38463   179%     -    0s
     0     0  -17.34790    0  171   -6.58686  -17.34790   163%     -    0s
H    0     0                      -9.9983282  -17.34790  73.5%     -    0s
     0     0  -17.07987    0  141   -9.99833  -17.07987  70.8%     -    0s
H    0     0                     -10.7129630  -17.07987  59.4%     -    0s
     0     0  -17.06919    0  155  -10.71296  -17.06919  59.3%     -    0s
     0     0  -17.05677    0  129  -10.71296  -17.05677  59.2%     -    0s
H    0     0                     -11.2037652  -17.05677  52.2%     -    0s
H    0     0                     -15.3021172  -17.05677  11.5%     -    0s
H    0     0                     -15.4482782  -17.05677  10.4%     -    0s
H    0     0                     -15.4809745  -17.05677  10.2%     -    0s
     0     2  -17.05677    0  129  -15.48097  -17.05677  10.2%     -    0s
* 2145  1012              51     -15.5276858  -16.32453  5.13%  59.7    2s
* 2240  1069              41     -15.7151064  -16.32453  3.88%  58.9    2s
* 2241  1069              42     -15.7151064  -16.32453  3.88%  58.9    2s
* 3072  1196              62     -15.7151084  -16.32453  3.88%  55.4    2s
* 3237  1266              62     -15.7151141  -16.32453  3.88%  54.7    2s
* 3239  1266              62     -15.7151277  -16.32453  3.88%  54.6    2s
* 3240  1266              62     -15.7151369  -16.32453  3.88%  54.6    2s
* 3242  1266              61     -15.7156187  -16.32453  3.87%  54.6    2s
* 3243  1266              61     -15.7156316  -16.32453  3.87%  54.6    2s
* 3540  1404              70     -15.7600620  -16.32453  3.58%  53.1    3s
* 3541  1404              70     -15.7600698  -16.32453  3.58%  53.1    3s
* 3760  1462              71     -15.7600959  -16.32453  3.58%  51.9    3s
* 3761  1462              71     -15.7601495  -16.32453  3.58%  51.9    3s
* 4198  1644              51     -15.8165607  -16.32453  3.21%  50.0    3s
* 6553  1513              47     -15.8171666  -15.87073  0.34%  43.9    4s
* 6677  1513              43     -15.8172916  -15.87073  0.34%  43.5    4s
* 7004  1484              47     -15.8174660  -15.86074  0.27%  42.3    4s
* 7272  1484              46     -15.8177352  -15.86074  0.27%  41.3    4s
* 7361  1484              44     -15.8179601  -15.86074  0.27%  40.9    4s
* 7363  1484              45     -15.8179673  -15.86074  0.27%  40.9    4s
* 7511  1578              52     -15.8187793  -15.86074  0.27%  40.5    4s
* 7513  1578              53     -15.8187969  -15.86074  0.27%  40.5    4s
* 7515  1578              54     -15.8188199  -15.86074  0.27%  40.5    4s
* 7517  1578              55     -15.8188212  -15.86074  0.26%  40.5    4s
* 7518  1578              55     -15.8188213  -15.86074  0.26%  40.5    4s
* 7915  1848              56     -15.8194027  -15.85454  0.22%  39.3    4s
* 8028  1848              49     -15.8195644  -15.85454  0.22%  39.0    4s
* 8029  1848              49     -15.8195655  -15.85454  0.22%  39.0    4s
* 8094  1848              50     -15.8207115  -15.85454  0.21%  38.7    4s
* 8769  1653              48     -15.8209712  -15.84370  0.14%  36.5    4s
* 8770  1653              48     -15.8209715  -15.84370  0.14%  36.5    4s
* 8773  1653              47     -15.8209724  -15.84370  0.14%  36.5    4s
* 8970  1653              52     -15.8210925  -15.84370  0.14%  35.9    4s
* 9483  2016              43     -15.8218094  -15.83382  0.08%  34.3    4s
* 9548  2016              59     -15.8218132  -15.83382  0.08%  34.1    4s
* 9549  2016              59     -15.8218138  -15.83382  0.08%  34.1    4s
* 9782  2016              44     -15.8220929  -15.83382  0.07%  33.5    4s
 10210  1379  -15.82556   19   16  -15.82209  -15.83382  0.07%  32.3    5s
*10231  1379              44     -15.8222422  -15.83340  0.07%  32.3    5s
*10273  1379              44     -15.8222966  -15.83104  0.06%  32.2    5s
*10274  1379              45     -15.8223003  -15.83104  0.06%  32.2    5s
*10275  1379              45     -15.8223006  -15.83104  0.06%  32.2    5s

Cutting planes:
  RLT: 53
  BQP: 6
  PSD: 1

Explored 11258 nodes (338248 simplex iterations) in 5.02 seconds
Thread count was 32 (of 72 available processors)

Solution count 10: -15.8223 -15.8223 -15.8222 ... -15.8207

Optimal solution found (tolerance 1.00e-04)
Best objective -1.582230062458e+01, best bound -1.582232119496e+01, gap 0.0001%

User-callback calls 23229, time in user-callback 0.00 sec



objective value: -15.822300624576089
objective bound: -15.822321194963193
x_opt: [0.0, 1.000000468796623, 1.0, 0.517133011772387, 0.7399127226594241, 1.0, 1.0, 1.0, 0.241067141036229, 0.0, 0.8791989413475113, 0.0, 0.0, 1.0, 1.0, 1.0, 1.0, 1.0, 0.0, 0.0, 0.0, 1.0, 1.0, 1.0, 0.5771867392588282, 0.7706106566121008, 1.0, 0.0, 0.0, 0.73232383042986, 0.0, 1.0, 1.0, 1.0, 1.0, 1.0, 1.0, 0.0444653870938994, 1.0, 1.0, 0.949024130569041, 0.0, 1.0, 0.0, 0.0, 1.0, 0.14654419252727327, 1.0, 0.0, 1.0]
GUROBI solution time: 5.023652791976929

